Data path: /scratch/opt/lxu/CFLG/benchmarks/random_A
Instance: r_10_0.1_12.txt
Result path: /scratch/opt/lxu/CFLG/results/random_A
Solver: Gurobi
Time limit: 3600
Formulation: EVFP
Cover: Small
julia --project=. src/main.jl /scratch/opt/lxu/CFLG/benchmarks/random_A r_10_0.1_12.txt /scratch/opt/lxu/CFLG/results/random_A Gurobi 3600 EVFP Small
The latest version of Julia in the `release` channel is 1.11.5+0.x64.linux.gnu. You currently have `1.11.4+0.x64.linux.gnu` installed. Run:

  juliaup update

in your terminal shell to install Julia 1.11.5+0.x64.linux.gnu and update the `release` channel to that version.
/scratch/opt/lxu/CFLG/benchmarks/random_A Gurobi 3600.0 /scratch/opt/lxu/CFLG/results/random_A r_10_0.1_12.txt EVFP Small
/scratch/opt/lxu/CFLG/benchmarks/random_A/r_10_0.1_12.txt

 read graph
data loaded


after absorb:9 10

max_piece:8
problem_graph/original graph: node: 40/10 edge: 42/12 dlt: 0.22546720621393398 break_avg_len: 0.19520970234972643 break_max_len: 0.22192453364448472elapsed CPU time: 0.045505 seconds
Set parameter TokenServer to value "solice01.zib.de"
Set parameter Threads to value 1
Set parameter OutputFlag to value 1
Set parameter MIPGap to value 0.0001
Set parameter MIPGapAbs to value 1
Set parameter TimeLimit to value 3599.954495
vertex var

 model loaded

Gurobi Optimizer version 12.0.1 build v12.0.1rc0 (linux64 - "Debian GNU/Linux 12 (bookworm)")

CPU model: Intel(R) Xeon(R) Gold 5122 CPU @ 3.60GHz, instruction set [SSE2|AVX|AVX2|AVX512]
Thread count: 8 physical cores, 16 logical processors, using up to 1 threads

Non-default parameters:
TimeLimit  3599.954495
MIPGapAbs  1
Threads  1

Optimize a model with 1158 rows, 597 columns and 3067 nonzeros
Model fingerprint: 0x083cd01a
Variable types: 82 continuous, 515 integer (515 binary)
Coefficient statistics:
  Matrix range     [1e-01, 1e+00]
  Objective range  [1e+00, 1e+00]
  Bounds range     [2e-01, 2e-01]
  RHS range        [2e-01, 4e+00]
Found heuristic solution: objective 42.0000000
Presolve removed 257 rows and 90 columns
Presolve time: 0.04s
Presolved: 901 rows, 507 columns, 4162 nonzeros
Variable types: 82 continuous, 425 integer (425 binary)

Root relaxation: objective 1.350000e+01, 475 iterations, 0.01 seconds (0.01 work units)

    Nodes    |    Current Node    |     Objective Bounds      |     Work
 Expl Unexpl |  Obj  Depth IntInf | Incumbent    BestBd   Gap | It/Node Time

     0     0   13.50000    0  126   42.00000   13.50000  67.9%     -    0s
H    0     0                      22.0000000   13.50000  38.6%     -    0s
H    0     0                      20.0000000   13.50000  32.5%     -    0s
H    0     0                      19.0000000   13.50000  28.9%     -    0s
     0     0   13.56784    0  150   19.00000   13.56784  28.6%     -    0s
     0     0   14.00000    0  126   19.00000   14.00000  26.3%     -    0s
     0     0   14.00000    0  163   19.00000   14.00000  26.3%     -    0s
     0     0   14.00000    0  163   19.00000   14.00000  26.3%     -    0s
     0     0   14.00000    0  158   19.00000   14.00000  26.3%     -    0s
     0     0   14.00000    0  150   19.00000   14.00000  26.3%     -    0s
     0     0   14.00000    0  109   19.00000   14.00000  26.3%     -    0s
     0     0   14.00000    0  142   19.00000   14.00000  26.3%     -    0s
     0     0   14.00000    0  106   19.00000   14.00000  26.3%     -    0s
     0     0   14.00000    0  113   19.00000   14.00000  26.3%     -    0s
     0     0   14.00000    0  109   19.00000   14.00000  26.3%     -    0s
     0     0   14.00000    0  135   19.00000   14.00000  26.3%     -    0s
     0     0   14.00000    0  103   19.00000   14.00000  26.3%     -    0s
     0     0   14.00000    0  103   19.00000   14.00000  26.3%     -    0s
H    0     0                      18.0000000   14.00000  22.2%     -    0s
     0     2   14.00000    0  103   18.00000   14.00000  22.2%     -    0s
  1034   492   17.00000   40   27   18.00000   16.00000  11.1%  59.0    5s
  3982   785   17.00000   36   59   18.00000   16.58816  7.84%  41.0   10s

Cutting planes:
  Gomory: 6
  Cover: 29
  Implied bound: 18
  MIR: 87
  StrongCG: 1
  Flow cover: 197
  GUB cover: 38
  Inf proof: 4
  Zero half: 15
  Relax-and-lift: 22

Explored 6424 nodes (238743 simplex iterations) in 12.67 seconds (8.98 work units)
Thread count was 1 (of 16 available processors)

Solution count 5: 18 19 20 ... 42

Optimal solution found (tolerance 1.00e-04)
Best objective 1.800000000000e+01, best bound 1.700000000000e+01, gap 5.5556%

User-callback calls 18683, time in user-callback 0.02 sec
Stat(MathOptInterface.OPTIMAL, 18.0, 17.000000000000004, 0.05555555555555536, 0.0, 0.045505, 12.66774296760559, 6424, Main.CFLG.EVFP, "", #undef)
